234
0 1 18 19 2 3 20 21 4 5 
22 34 35 36 24 23 6 7 8 9 
10 11 12 13 25 14 26 27 15 16 
28 40 39 38 37 49 48 57 58 72 
71 70 69 68 67 81 82 83 84 85 
86 101 100 115 116 125 124 133 134 143 
152 161 160 151 142 141 150 159 174 175 
176 177 178 195 214 233 232 213 194 193 
192 211 212 231 230 229 210 191 190 209 
228 227 208 189 188 207 226 225 206 187 
186 185 184 203 204 205 224 223 222 221 
202 183 182 181 180 199 200 201 220 219 
218 217 216 215 196 197 198 179 162 153 
144 135 126 117 102 87 88 89 90 105 
120 119 104 103 118 127 128 129 138 147 
156 155 146 137 136 145 154 163 164 165 
166 167 168 169 170 171 172 173 158 157 
148 149 140 139 130 131 132 123 114 99 
98 113 122 121 112 97 96 111 110 95 
80 66 65 56 47 46 45 54 55 64 
63 77 78 79 94 109 108 93 92 107 
106 91 76 75 74 73 59 60 51 50 
41 42 43 52 61 62 53 44 33 32 
31 30 29 17 
